PointerNetwork/Ptr_Net_TSPTW/benchmark/n20w20/n20w20.004.txt.solution
1 12 4 3 20 8 16 10 9 6 7 11 15 5 13 17 19 14 21 18 2 
396
